p cnf 7230 18
2026 4326 4340 4358 4382 -4948 0
-2026 -4949 0
-4326 -4949 0
-4340 -4949 0
-4312 4945 0
-2740 -4282 -4946 0
2740 -4947 0
-4358 -4949 0
4948 4949 0
4946 4947 0
4282 -4947 0
-4382 -4949 0
-4944 -4945 0
4944 4945 0
-4366 -4951 0
-4346 -4951 0
-4328 -4951 0
-2028 -4951 0
